branch-and-cut/resultados/I080/i080-035.sol
1862
12
3 40
52 75
52 43
2 52
1 11
43 78
6 78
25 75
40 25
4 43
11 75
2 5
